Route #1: 1 65 4 41 45 1
Route #2 1 64 29 15 78 1
Route #3 1 40 11 26 1
Route #4 1 66 43 79 7 1
Route #5 1 38 37 30 1
Route #6 1 44 46 3 50 8 5 1
Route #7 1 10 17 70 1
Route #8 1 67 85 91 77 1
Route #9 1 69 55 87 1
Route #10 1 93 71 2 1
Route #11 1 56 75 14 1
Route #12 1 19 13 1
Route #13 1 59 35 9 1
Route #14 1 81 18 1
Route #15 1 57 95 97 60 1
Route #16 1 89 68 61 1
Route #17 1 83 58 73 88 49 1
Route #18 1 27 48 39 28 98 1
Route #19 1 92 53 82 1
Route #20 1 84 52 1
Route #21 1 72 63 100 99 90 1
Route #22 1 62 101 22 1
Route #23 1 24 20 51 1
Route #24 1 80 12 86 31 1
Route #25 1 76 94 1
Route #26 1 34 54 74 96 1
Route #27 1 32 33 1
Route #28 1 25 47 21 36 1
Route #29 1 42 23 16 6 1
Cost: 29648